ENCUT = 500
SIGMA=0.0001
EDIFF = 1E-5
LHFCALC=.TRUE.
AEXX=1.0
ISYM=-1
ALGO=CC4S
NBANDS = 21
NBANDSHIGH = 21
ENCUTGW=300
ENCUTGWSOFT=300
#LHFMEANPOT = T
#LHFMEANPOT_PROBECHARGE = T
PREC=Accurate
LREAL=.TRUE.
