Automatically generated mesh
       0
gamma
 1 1 1
