LiH                                     
   1.00000000000000     
     7.4080020559999999    0.0000000000000000    0.0000000000000000
     0.0000000000000000    7.4080020559999999    0.0000000000000000
     0.0000000000000000    0.0000000000000000    7.4080020559999999
   L    H 
     1     1
Direct
  0.0000000000000000  0.0000000000000000  0.0000000000000000
  0.0000000000000000  0.0000000000000000  0.2188259309521996
 
  0.00000000E+00  0.00000000E+00  0.00000000E+00
  0.00000000E+00  0.00000000E+00  0.00000000E+00
