ENCUT = 600
SIGMA=0.0001
EDIFF = 1E-5
LHFCALC=.TRUE.
AEXX=1.0
ISYM=-1
ALGO=CC4S
NBANDS = 62
NBANDSHIGH = 62
ENCUTGW=600
ENCUTGWSOFT=600
#LHFMEANPOT = T
#LHFMEANPOT_PROBECHARGE = T
PREC=Accurate
NFREEZE=1
