ENCUT = 400
SIGMA=0.0001
EDIFF = 1E-5
LHFCALC=.TRUE.
AEXX=1.0
ISYM=-1
ALGO=CC4S
NBANDS = 31
NBANDSHIGH = 31
ENCUTGW=400
ENCUTGWSOFT=400
#LHFMEANPOT = T
#LHFMEANPOT_PROBECHARGE = T
PREC=Accurate
