LiH
1.00000000000000
7.408002056   0.000000000  0.000000000
0.000000000  7.408002056   0.000000000
0.000000000  0.000000000  7.408002056
L H
1 1
Cartesian
0.00000000  0.00000000  0.00000000
0.00000000  0.00000000  1.6210629464
