He                                      
   1.0000000000000000     
     5.2917699999999996    0.0000000000000000    0.0000000000000000
     0.0000000000000000    5.2917699999999996    0.0000000000000000
     0.0000000000000000    0.0000000000000000    5.2917699999999996
   He
     1
Direct
  0.0000000000000000  0.0000000000000000  0.0000000000000000

  0.00000000E+00  0.00000000E+00  0.00000000E+00
