ENCUT = 800
SIGMA=0.0001
LHFCALC=.TRUE.
AEXX=1.0
ISYM=-1
ALGO = MP2
NBANDS = 2517
NBANDSHIGH = 2517
ENCTUGW=800
LSFACTOR=.TRUE.
#LHFMEANPOT = T
#LHFMEANPOT_PROBECHARGE = T
ISYM=-1
PREC=Accurate
