He
   1.0000000000000     
     5.29177  0.000000000  0.000000000
     0.000000000  5.29177   0.000000000
     0.000000000  0.000000000  5.29177
He
1
Cartesian
   0.00000000  0.00000000  0.00000000
