LiH                                     
   1.0000000000000000     
     6.3499999999999996    0.0000000000000000    0.0000000000000000
     0.0000000000000000    6.3499999999999996    0.0000000000000000
     0.0000000000000000    0.0000000000000000    6.3499999999999996
   L    H 
     1     1
Direct
  0.0000000000000000  0.0000000000000000  0.0000000000000000
  0.0000000000000000  0.0000000000000000  0.2552854016700792

  0.00000000E+00  0.00000000E+00  0.00000000E+00
  0.00000000E+00  0.00000000E+00  0.00000000E+00
