LiH
   1.00000000000000     
     6.35  0.000000000  0.000000000
     0.000000000  6.35   0.000000000
     0.000000000  0.000000000  6.35
L H
1 1
Cartesian
   0.00000000  0.00000000  0.00000000
   0.00000000  0.00000000 1.621062300605
